NAME : MM41_depots
COMMENT : Instance 41 in MD algorithm. Coordinates of depots and vhcl speeds given.
TYPE : TSP
DIMENSION : 6
EDGE_WEIGHT_TYPE : ATT
NODE_COORD_SECTION
501 71.3316 71.0348 1
502 71.3316 71.0348 1
503 66.6381 78.9128 1
504 66.6381 78.9128 1
505 55.2396 73.9919 1
506 55.2396 73.9919 1
EOF
